 vasp.6.1.2 22Jul20 (build Mar 31 2021 23:44:53) complex

 executed on             LinuxIFC date 2023.12.08  03:27:47

 INCAR:
 POTCAR:    PAW_PBE Cu 22Jun2005
 POTCAR:     PAW_PBE Pd 04Jan2005
 POTCAR:     PAW_PBE Ag 02Apr2005
 POTCAR:     PAW_PBE Pt 04Feb2005
 POTCAR:     PAW_PBE Au 04Oct2007
 POTCAR:    PAW_PBE Cu 22Jun2005
   VRHFIN =Cu: d10 p1

   TITEL  = PAW_PBE Cu 22Jun2005
   POMASS =   63.546; ZVAL   =   11.000    mass and valenz
   ENMAX  =  295.446; ENMIN  =  221.585 eV

   TITEL  = PAW_PBE Pd 04Jan2005
   POMASS =  106.420; ZVAL   =   10.000    mass and valenz
   ENMAX  =  250.925; ENMIN  =  188.194 eV

   TITEL  = PAW_PBE Ag 02Apr2005
   POMASS =  107.868; ZVAL   =   11.000    mass and valenz
   ENMAX  =  249.844; ENMIN  =  187.383 eV

   TITEL  = PAW_PBE Pt 04Feb2005
   POMASS =  195.080; ZVAL   =   10.000    mass and valenz
   ENMAX  =  230.283; ENMIN  =  172.712 eV

   TITEL  = PAW_PBE Au 04Oct2007
   POMASS =  196.966; ZVAL   =   11.000    mass and valenz
   ENMAX  =  229.943; ENMIN  =  172.457 eV

  PAW_PBE Cu 22Jun2005                  :
   PAW_PBE Pd 04Jan2005                 :
   PAW_PBE Ag 02Apr2005                 :
   PAW_PBE Pt 04Feb2005                 :
   PAW_PBE Au 04Oct2007                 :

 POSCAR: Cu Pd Ag Pt Au
  positions in cartesian coordinates
 exchange correlation table for  LEXCH =        9
   RHO(1)=    0.500       N(1)  =     2000
   RHO(2)=  100.500       N(2)  =     4000

 VTST: version 3.2, (02/03/18)

 CHAIN: initializing optimizer

 OPT: Using VASP Conjugate-Gradient optimizer
 CHAIN: Read ICHAIN            0

 POSCAR: Cu Pd Ag Pt Au
  positions in cartesian coordinates

 ion  position               nearest neighbor table
   1  0.667  0.333  0.657-  20 2.81  39 2.81  12 2.81  38 2.81  22 2.81  15 2.81  18 2.81
   2  0.222  0.556  0.343-  41 2.81  27 2.81  19 2.81  16 2.81  29 2.81  13 2.81  24 2.81  32 2.81

   3  0.556  0.222  0.343-  29 2.81  21 2.81  13 2.81  17 2.81  26 2.81  41 2.81  37 2.81  27 2.81

   4  0.667  0.000  0.657-  44 2.81  10 2.81  12 2.81  18 2.81  15 2.81  34 2.81
   5  0.667  0.667  0.421-  40 2.81  19 2.81  31 2.81  24 2.81  16 2.81  17 2.81  13 2.81  37 2.81
                            26 2.81  30 2.81  42 2.81  23 2.81
   6  0.333  0.000  0.657-  15 2.81  34 2.81  22 2.81  35 2.81  12 2.81  33 2.81  20 2.81
   7  0.222  0.556  0.579-  35 2.81  44 2.81  25 2.81  18 2.81  11 2.81  22 2.81  36 2.81  10 2.81
                            38 2.81  33 2.81
   8  0.889  0.556  0.579-  38 2.81  15 2.81  42 2.81  34 2.81  20 2.81  39 2.81  35 2.81  23 2.81
                            44 2.81  25 2.81  10 2.81
   9  0.333  0.333  0.657-  44 2.81  35 2.81  22 2.81  18 2.81  20 2.81
  10  0.889  0.889  0.579-  18 2.81   4 2.81  43 2.81  34 2.81  23 2.81  11 2.81  39 2.81  44 2.81
                             7 2.81  33 2.81  12 2.81   8 2.81
  11  0.111  0.778  0.500-  43 2.81  23 2.81  28 2.81  10 2.81  14 2.81   7 2.81  33 2.81  25 2.81
                            30 2.81  19 2.81  36 2.81  16 2.81
  12  0.000  0.000  0.657-  22 2.81  33 2.81   4 2.81   1 2.81  44 2.81  39 2.81  20 2.81   6 2.81
                            10 2.81
  13  0.556  0.556  0.343-  24 2.81  21 2.81  17 2.81   3 2.81  16 2.81   5 2.81  32 2.81  37 2.81
                             2 2.81
  14  0.111  0.111  0.500-  30 2.81  43 2.81  33 2.81  42 2.81  39 2.81  11 2.81  25 2.81  35 2.81
                            45 2.81  28 2.81  31 2.81  40 2.81
  15  0.667  0.667  0.657-   6 2.81  44 2.81  20 2.81   8 2.81  22 2.81   1 2.81  38 2.81  34 2.81
                             4 2.81
  16  0.333  0.667  0.421-  28 2.81   5 2.81  17 2.81  13 2.81  40 2.81  41 2.81  32 2.81   2 2.81
                            19 2.81  30 2.81  36 2.81  11 2.81
  17  0.667  0.333  0.421-  31 2.81  21 2.81  28 2.81  13 2.81  16 2.81   5 2.81   3 2.81  36 2.81
                            42 2.81  26 2.81  41 2.81  43 2.81
  18  0.556  0.222  0.579-  10 2.81  39 2.81  36 2.81  38 2.81   1 2.81  43 2.81   7 2.81   4 2.81
                             9 2.81  45 2.81  34 2.81  35 2.81
  19  1.000  0.667  0.421-  26 2.81   5 2.81  41 2.81  23 2.81   2 2.81  28 2.81  31 2.81  29 2.81
                            24 2.81  16 2.81  11 2.81  25 2.81
  20  1.000  0.333  0.657-   1 2.81  15 2.81   8 2.81  39 2.81  44 2.81  35 2.81  12 2.81   9 2.81
                             6 2.81
  21  0.889  0.222  0.343-  32 2.81   3 2.81  13 2.81  17 2.81  24 2.81  31 2.81  29 2.81  28 2.81
                            27 2.81
  22  0.333  0.667  0.657-  12 2.81  15 2.81   1 2.81  38 2.81   6 2.81   9 2.81  33 2.81   7 2.81
                            44 2.81
  23  0.778  0.778  0.500-  45 2.81  11 2.81  10 2.81  26 2.81  25 2.81  19 2.81  43 2.81   8 2.81
                            34 2.81  30 2.81  42 2.81   5 2.81
  24  0.889  0.556  0.343-  13 2.81   5 2.81  37 2.81  31 2.81  21 2.81  27 2.81  19 2.81   2 2.81
                            29 2.81
  25  0.111  0.444  0.500-  42 2.81  23 2.81  35 2.81  45 2.81   7 2.81  14 2.81   8 2.81  41 2.81
                            11 2.81  36 2.81  31 2.81  19 2.81
  26  0.667  0.000  0.421-  19 2.81  29 2.81  28 2.81  23 2.81   3 2.81   5 2.81  17 2.81  40 2.81
                            43 2.81  41 2.81  45 2.81  37 2.81
  27  0.222  0.222  0.343-  37 2.81   2 2.81  41 2.81  32 2.81  24 2.81  40 2.81  31 2.81   3 2.81
                            21 2.81
  28  0.000  0.000  0.421-  16 2.81  32 2.81  26 2.81  11 2.81  17 2.81  43 2.81  19 2.81  21 2.81
                            31 2.81  40 2.81  14 2.81  29 2.81
  29  0.889  0.889  0.343-   3 2.81  26 2.81  37 2.81  21 2.81  19 2.81   2 2.81  32 2.81  28 2.81
                            24 2.81
  30  0.444  0.778  0.500-  14 2.81  40 2.81  33 2.81  34 2.81  45 2.81  38 2.81  42 2.81  36 2.81
                            23 2.81  11 2.81   5 2.81  16 2.81
  31  1.000  0.333  0.421-  17 2.81   5 2.81  42 2.81  24 2.81  21 2.81  19 2.81  27 2.81  28 2.81
                            41 2.81  25 2.81  14 2.81  40 2.81
  32  0.222  0.889  0.343-  21 2.81  28 2.81  37 2.81  27 2.81  16 2.81  13 2.81  29 2.81  40 2.81
                             2 2.81
  33  0.222  0.889  0.579-  39 2.81  12 2.81  14 2.81  34 2.81  30 2.81  35 2.81  22 2.81  11 2.81
                            38 2.81  10 2.81   6 2.81   7 2.81
  34  0.556  0.889  0.579-  35 2.81   6 2.81  45 2.81  10 2.81   8 2.81  33 2.81  30 2.81  15 2.81
                            23 2.81  18 2.81  38 2.81   4 2.81
  35  0.222  0.222  0.579-  34 2.81  25 2.81   7 2.81   9 2.81  45 2.81  33 2.81   8 2.81   6 2.81
                            20 2.81  14 2.81  18 2.81  39 2.81
  36  0.444  0.444  0.500-  42 2.81  18 2.81  43 2.81  38 2.81  45 2.81   7 2.81  17 2.81  30 2.81
                            25 2.81  41 2.81  16 2.81  11 2.81
  37  0.556  0.889  0.343-  27 2.81  40 2.81  29 2.81  24 2.81  32 2.81   5 2.81   3 2.81  13 2.81
                            26 2.81
  38  0.556  0.556  0.579-   8 2.81  39 2.81   1 2.81  18 2.81  22 2.81  15 2.81  42 2.81  36 2.81
                            30 2.81  33 2.81  34 2.81   7 2.81
  39  0.889  0.222  0.579-  33 2.81  18 2.81  38 2.81   1 2.81  43 2.81  42 2.81   8 2.81  20 2.81
                            14 2.81  10 2.81  12 2.81  35 2.81
  40  0.333  0.000  0.421-   5 2.81  37 2.81  30 2.81  16 2.81  27 2.81  41 2.81  28 2.81  26 2.81
                            45 2.81  32 2.81  31 2.81  14 2.81
  41  0.333  0.333  0.421-   2 2.81  19 2.81  27 2.81  16 2.81   3 2.81  25 2.81  40 2.81  31 2.81
                            17 2.81  36 2.81  45 2.81  26 2.81
  42  0.778  0.444  0.500-  25 2.81  14 2.81   8 2.81  31 2.81  36 2.81  39 2.81  43 2.81  38 2.81
                            17 2.81  30 2.81   5 2.81  23 2.81
  43  0.778  0.111  0.500-  11 2.81  14 2.81  10 2.81  39 2.81  42 2.81  36 2.81  28 2.81  18 2.81
                            23 2.81  45 2.81  26 2.81  17 2.81
  44  1.000  0.667  0.657-   4 2.81  15 2.81   9 2.81   7 2.81  12 2.81  20 2.81  10 2.81   8 2.81
                            22 2.81
  45  0.444  0.111  0.500-  23 2.81  34 2.81  25 2.81  35 2.81  30 2.81  36 2.81  18 2.81  43 2.81
                            14 2.81  40 2.81  41 2.81  26 2.81

  LATTYP: Found a hexagonal cell.
 ALAT       =     8.4386069521
 C/A-ratio  =     3.4587225315

  Lattice vectors:

 A1 = (   4.2193000000,  -7.3080500000,   0.0000000000)
 A2 = (  -8.4386100000,   0.0000000000,   0.0000000000)
 A3 = (   0.0000000000,   0.0000000000, -29.1868000000)

Analysis of symmetry for initial positions (statically):
 Subroutine PRICEL returns:
 Original cell was already a primitive cell.

 Routine SETGRP: Setting up the symmetry group for a
 hexagonal supercell.

 Subroutine GETGRP returns: Found  1 space group operations
 (whereof  1 operations were pure point group operations)
 out of a pool of 24 trial point group operations.

The static configuration has the point symmetry C_1 .

Analysis of symmetry for dynamics (positions and initial velocities):
 Subroutine PRICEL returns:
 Original cell was already a primitive cell.

 Routine SETGRP: Setting up the symmetry group for a
 hexagonal supercell.

 Subroutine GETGRP returns: Found  1 space group operations
 (whereof  1 operations were pure point group operations)
 out of a pool of 24 trial point group operations.

The dynamic configuration has the point symmetry C_1 .

 Subroutine INISYM returns: Found  1 space group operations
 (whereof  1 operations are pure point group operations),
 and found     1 'primitive' translations

                                     Primitive cell

  volume of cell :    1799.9436

  direct lattice vectors                    reciprocal lattice vectors
     8.438610000  0.000000000  0.000000000     0.118502929 -0.068417785  0.000000000
     4.219310000  7.308050000  0.000000000     0.000000000  0.136835408  0.000000000
     0.000000000  0.000000000 29.186800000     0.000000000  0.000000000  0.034262064

  length of vectors
     8.438610000  8.438611952 29.186800000     0.136835439  0.136835408  0.034262064

  position of ions in fractional coordinates (direct lattice)
     0.666666615  0.333333516  0.657379260
     0.222221928  0.555555723  0.342620637
     0.555555600  0.222222344  0.342620637
     0.666666904  0.000000000  0.657379260
     0.666666395  0.666666895  0.421310284
     0.333333452  0.000000000  0.657379260
     0.222221928  0.555555723  0.578689613
     0.888888476  0.555555723  0.578689613
     0.333333163  0.333333516  0.657379260
     0.888888306  0.888889239  0.578689613
     0.111110624  0.777778067  0.499999966
     0.000000000  0.000000000  0.657379260
     0.555555380  0.555555723  0.342620637
     0.111111015  0.111111172  0.499999966
     0.666666395  0.666666895  0.657379260
     0.333333061  0.666666895  0.421310284
     0.666666615  0.333333516  0.421310284
     0.555555600  0.222222344  0.578689613
     0.999999609  0.666666895  0.421310284
     0.999999711  0.333333516  0.657379260
     0.888888696  0.222222344  0.342620637
     0.333333061  0.666666895  0.657379260
     0.777777528  0.777778067  0.499999966
     0.888888476  0.555555723  0.342620637
     0.111110913  0.444444551  0.499999966
[...]

 average (electrostatic) potential at core
  the test charge radii are     0.9430  1.1199  1.1249  1.2059  1.2098
  (the norm of the test charge is              1.0000)
       1 -70.0800       2 -70.0601       3 -70.0287       4 -70.0476       5 -70.1309
       6 -70.0144       7 -70.2308       8 -70.2315       9 -70.1257      10 -79.4736
      11 -79.5563      12 -79.1558      13 -79.2026      14 -79.5545      15 -79.1711
      16 -79.5729      17 -79.5386      18 -79.7625      19 -78.3996      20 -78.0860
      21 -78.0717      22 -78.1027      23 -78.4298      24 -78.1814      25 -78.3924
      26 -78.4449      27 -78.2114      28 -72.8417      29 -72.5643      30 -72.9733
      31 -72.7203      32 -72.5867      33 -72.8873      34 -72.9299      35 -72.8181
      36 -72.8731      37 -72.5261      38 -73.0221      39 -72.9403      40 -72.8945
      41 -72.9748      42 -72.8837      43 -72.7886      44 -72.5044      45 -72.9384

 E-fermi :   0.5583     XC(G=0):  -5.5694     alpha+bet : -5.6118

[...]

 k-point     5 :      -0.3333    0.3333    0.0000
  band No.  band energies     occupation
      1      -6.7430      2.00000
      2      -6.6546      2.00000
      3      -6.1717      2.00000
      4      -5.9684      2.00000
      5      -5.6414      2.00000
      6      -5.5783      2.00000
      7      -5.3402      2.00000
      8      -5.2962      2.00000
      9      -5.2752      2.00000
     10      -5.1681      2.00000
     11      -5.1333      2.00000
     12      -5.1093      2.00000
     13      -5.0926      2.00000
     14      -5.0647      2.00000
     15      -5.0198      2.00000
     16      -4.9652      2.00000
     17      -4.8833      2.00000
     18      -4.8560      2.00000
     19      -4.8278      2.00000
     20      -4.7938      2.00000
     21      -4.7453      2.00000
     22      -4.7004      2.00000
     23      -4.6892      2.00000
     24      -4.6296      2.00000
     25      -4.6063      2.00000
     26      -4.5786      2.00000
     27      -4.5534      2.00000
     28      -4.5240      2.00000
     29      -4.5177      2.00000
     30      -4.4658      2.00000
     31      -4.4305      2.00000
     32      -4.3983      2.00000
     33      -4.3702      2.00000
     34      -4.3580      2.00000
     35      -4.3374      2.00000
     36      -4.3092      2.00000
     37      -4.2948      2.00000
     38      -4.2507      2.00000
     39      -4.2249      2.00000
     40      -4.2073      2.00000
     41      -4.1745      2.00000
     42      -4.1555      2.00000
     43      -4.1443      2.00000
     44      -4.1039      2.00000
     45      -4.0813      2.00000
     46      -4.0635      2.00000
     47      -4.0469      2.00000
     48      -3.9935      2.00000
     49      -3.9816      2.00000
     50      -3.9572      2.00000
     51      -3.9318      2.00000
     52      -3.9079      2.00000
     53      -3.8817      2.00000
     54      -3.8673      2.00000
     55      -3.8169      2.00000
     56      -3.8088      2.00000
     57      -3.7715      2.00000
     58      -3.7555      2.00000
     59      -3.7396      2.00000
     60      -3.7110      2.00000
[...]
    274       5.2191      0.00000
    275       5.4159      0.00000
    276       5.5533      0.00000
    277       5.5906      0.00000
    278       5.6249      0.00000
    279       5.7204      0.00000
    280       5.8440      0.00000
    281       5.9629      0.00000
    282       6.0138      0.00000
    283       6.0477      0.00000
    284       6.0653      0.00000
    285       6.1472      0.00000
    286       6.2852      0.00000
    287       6.3480      0.00000
    288       6.4060      0.00000

 soft charge-density along one line, spin component           1
         0         1         2         3         4         5         6         7         8         9
 total charge-density along one line

------------------------ aborting loop because EDIFF is reached ----------------------------------------

  FORCE on cell =-STRESS in cart. coord.  units (eV):
  Direction    XX          YY          ZZ          XY          YZ          ZX
  Alpha Z   977.72246   977.72246   977.72246
  Ewald  279894.01001279870.49992************    -8.68130    11.96839    12.14662
  Hartree291336.34761291316.00915************    -9.76265     5.47319     6.89252
  E(xc)   -2417.89486 -2418.11754 -2429.73211     0.02526    -0.09027     0.02996
  Local  ************************585827.20130    19.95400   -17.29147   -18.21391
  n-local  -319.38533  -318.44377  -330.73978    -1.21415     0.21128     0.35789
  augment  3411.53178  3412.28035  3448.99304     0.07970    -0.08629    -0.36906
  Kinetic  5930.20086  5933.13244  6011.40207    -0.71841    -0.45101    -0.62527
  Fock        0.00000     0.00000     0.00000     0.00000     0.00000     0.00000
  Total      -5.61185    -6.15615     0.96154    -0.31756    -0.26618     0.21874
  in kB      -4.99526    -5.47975     0.85589    -0.28267    -0.23693     0.19471

 VOLUME and BASIS-vectors are now :
  energy-cutoff  :      700.00
  volume of cell :     1799.94
      direct lattice vectors                 reciprocal lattice vectors
     8.438610000  0.000000000  0.000000000     0.118502929 -0.068417785  0.000000000
     4.219310000  7.308050000  0.000000000     0.000000000  0.136835408  0.000000000
     0.000000000  0.000000000 29.186800000     0.000000000  0.000000000  0.034262064

  length of vectors
     8.438610000  8.438611952 29.186800000     0.136835439  0.136835408  0.034262064

 FORCES acting on ions
    electron-ion (+dipol)            ewald-force                    non-local-force                 convergence-correction
   -.507E+02 -.228E+02 -.361E+04   0.498E+02 0.215E+02 0.361E+04   0.856E+00 0.126E+01 0.227E+01   0.496E-02 0.744E-02 -.288E-02
   0.179E+02 0.975E+01 0.358E+04   -.161E+02 -.797E+01 -.358E+04   -.177E+01 -.178E+01 -.184E+01   -.240E-02 -.254E-02 -.342E-02
   0.516E+01 0.107E+01 0.359E+04   -.368E+01 -.538E+00 -.359E+04   -.147E+01 -.532E+00 -.218E+01   0.824E-03 0.128E-02 0.215E-02
   -.159E+02 0.369E+02 -.359E+04   0.158E+02 -.367E+02 0.358E+04   0.678E-01 -.238E+00 0.389E+01   0.514E-03 -.372E-02 -.119E-02
   -.163E+02 -.263E+02 0.183E+04   0.150E+02 0.243E+02 -.183E+04   0.127E+01 0.197E+01 -.762E+00   0.356E-02 0.420E-03 -.305E-02
   0.358E+02 0.239E+02 -.357E+04   -.360E+02 -.244E+02 0.357E+04   0.130E+00 0.522E+00 0.375E+01   0.825E-03 -.374E-03 -.350E-02
   -.312E+02 -.434E+02 -.176E+04   0.307E+02 0.431E+02 0.176E+04   0.549E+00 0.321E+00 0.167E+01   -.503E-02 -.473E-02 -.415E-02
   0.397E+02 0.103E+02 -.186E+04   -.387E+02 -.977E+01 0.186E+04   -.950E+00 -.546E+00 -.610E+00   -.193E-02 -.283E-02 -.338E-02
   0.160E+02 -.520E+01 -.360E+04   -.159E+02 0.427E+01 0.359E+04   -.671E-01 0.921E+00 0.391E+01   -.510E-02 0.344E-02 -.146E-02
   -.310E+02 -.405E+02 -.161E+04   0.311E+02 0.402E+02 0.161E+04   -.265E-02 0.370E+00 0.222E-01   -.346E-02 -.268E-02 0.427E-03
   -.112E+02 -.359E+02 0.131E+02   0.119E+02 0.357E+02 -.127E+02   -.652E+00 0.170E+00 -.398E+00   -.430E-04 -.222E-02 -.481E-02
   -.220E+02 0.187E+02 -.332E+04   0.219E+02 -.188E+02 0.331E+04   0.285E-01 0.107E-01 0.259E+01   -.162E-03 -.174E-02 0.495E-02
   -.310E+02 -.128E+02 0.329E+04   0.300E+02 0.129E+02 -.328E+04   0.993E+00 -.105E+00 -.234E+01   0.256E-02 -.103E-02 -.108E-01
   0.136E+01 0.109E+02 0.192E+02   -.158E+01 -.113E+02 -.194E+02   0.199E+00 0.399E+00 0.150E+00   0.572E-03 0.318E-02 -.233E-02
   0.143E+02 0.149E+02 -.333E+04   -.141E+02 -.142E+02 0.333E+04   -.108E+00 -.689E+00 0.255E+01   0.326E-02 -.568E-02 0.543E-02
   0.148E+02 -.295E+02 0.158E+04   -.143E+02 0.292E+02 -.158E+04   -.416E+00 0.246E+00 -.313E+00   -.393E-02 -.133E-03 -.181E-02
   -.154E+02 0.305E+02 0.165E+04   0.157E+02 -.301E+02 -.165E+04   -.355E+00 -.471E+00 0.650E+00   -.171E-02 -.308E-02 -.731E-02
   -.320E+02 0.240E+02 -.155E+04   0.313E+02 -.239E+02 0.155E+04   0.718E+00 -.769E-01 -.610E+00   0.143E-02 0.157E-02 0.217E-02
   -.572E+01 -.633E+01 0.179E+04   0.581E+01 0.633E+01 -.179E+04   -.106E+00 0.989E-02 -.424E-01   0.211E-02 -.702E-03 -.315E-02
   0.279E+02 0.517E+01 -.378E+04   -.278E+02 -.532E+01 0.378E+04   -.117E+00 0.146E+00 0.223E+01   -.149E-02 0.817E-02 -.185E-02
   -.376E+02 0.430E+01 0.368E+04   0.369E+02 -.462E+01 -.368E+04   0.667E+00 0.332E+00 -.219E+01   -.783E-03 0.142E-03 -.410E-02
   -.114E+02 -.394E+02 -.374E+04   0.115E+02 0.398E+02 0.374E+04   -.756E-01 -.447E+00 0.211E+01   0.528E-03 -.298E-02 0.162E-02
   0.210E+01 -.268E+02 -.531E+01   -.205E+01 0.267E+02 0.626E+01   -.457E-01 0.217E-01 -.927E+00   0.315E-02 -.235E-02 -.267E-02
   0.138E+02 0.131E+02 0.366E+04   -.136E+02 -.128E+02 -.366E+04   -.145E+00 -.275E+00 -.182E+01   -.556E-03 -.789E-03 -.407E-02
   0.741E+00 0.323E+02 0.872E+01   -.490E+00 -.322E+02 -.802E+01   -.257E+00 -.315E-01 -.673E+00   0.585E-03 0.486E-03 -.194E-02
   -.150E+01 0.125E+01 0.182E+04   0.240E+01 -.110E+01 -.182E+04   -.896E+00 -.168E+00 0.648E+00   0.318E-03 0.258E-02 -.307E-02
   0.371E+02 0.176E+02 0.367E+04   -.373E+02 -.176E+02 -.367E+04   0.222E+00 -.166E-01 -.199E+01   -.107E-02 0.564E-04 -.257E-02
   -.180E+02 -.107E+02 0.165E+04   0.180E+02 0.110E+02 -.165E+04   -.359E-01 -.381E+00 -.338E+00   0.195E-03 0.150E-03 -.371E-02
   -.529E+01 -.248E+01 0.329E+04   0.580E+01 0.242E+01 -.329E+04   -.492E+00 0.636E-01 -.161E+01   -.768E-03 -.813E-03 -.681E-02
   0.112E+02 -.222E+02 -.183E+02   -.117E+02 0.220E+02 0.183E+02   0.472E+00 0.138E+00 0.509E-01   -.192E-02 -.146E-03 -.253E-02
   -.208E+02 0.467E+02 0.168E+04   0.200E+02 -.461E+02 -.168E+04   0.725E+00 -.552E+00 -.326E+00   0.364E-02 -.143E-02 -.490E-02
   -.245E+02 -.433E+02 0.326E+04   0.236E+02 0.424E+02 -.326E+04   0.919E+00 0.982E+00 -.119E+01   0.310E-03 -.115E-03 -.697E-02
   0.163E+02 -.116E+02 -.162E+04   -.165E+02 0.117E+02 0.162E+04   0.190E+00 -.163E+00 -.132E+00   0.427E-03 0.103E-02 -.162E-02
   0.165E+02 0.113E+02 -.159E+04   -.160E+02 -.111E+02 0.159E+04   -.428E+00 -.132E+00 -.102E+01   0.247E-02 -.292E-02 0.147E-02
   0.446E+02 0.408E+02 -.163E+04   -.442E+02 -.399E+02 0.163E+04   -.378E+00 -.855E+00 -.622E+00   -.265E-02 0.510E-02 -.549E-03
   -.132E+02 0.175E+02 0.261E+02   0.129E+02 -.168E+02 -.261E+02   0.319E+00 -.766E+00 -.915E-01   -.279E-02 0.453E-03 -.189E-02
   0.275E+02 0.125E+02 0.369E+04   -.270E+02 -.124E+02 -.369E+04   -.469E+00 -.184E-01 -.695E-01   -.296E-03 -.124E-02 -.544E-02
   -.109E+02 -.232E+02 -.181E+04   0.107E+02 0.232E+02 0.181E+04   0.229E+00 -.119E-01 -.633E+00   0.482E-02 -.397E-02 0.219E-02
   -.913E+01 0.335E+02 -.180E+04   0.962E+01 -.338E+02 0.180E+04   -.521E+00 0.337E+00 -.780E+00   0.176E-02 0.683E-02 -.203E-02
   0.252E+02 -.357E+02 0.181E+04   -.256E+02 0.350E+02 -.181E+04   0.414E+00 0.652E+00 -.544E+00   0.175E-02 0.441E-02 -.401E-02
   0.359E+02 0.254E+02 0.182E+04   -.354E+02 -.248E+02 -.182E+04   -.478E+00 -.642E+00 0.667E+00   -.383E-03 0.490E-03 -.372E-02
   0.151E+02 0.338E+02 0.299E+02   -.146E+02 -.336E+02 -.309E+02   -.532E+00 -.147E+00 0.930E+00   0.318E-02 -.255E-02 0.281E-02
   -.136E+02 -.533E+01 0.294E+02   0.139E+02 0.479E+01 -.299E+02   -.359E+00 0.535E+00 0.468E+00   0.208E-02 -.326E-03 -.186E-02
   0.804E+00 -.349E+02 -.368E+04   -.824E+00 0.348E+02 0.368E+04   0.488E-01 0.102E+00 0.586E+00   -.487E-02 -.262E-02 0.510E-03
   0.110E+02 0.147E+01 0.696E+01   -.111E+02 -.155E+01 -.637E+01   0.128E+00 0.725E-01 -.551E+00   -.142E-02 0.293E-02 -.461E-02
   0.198E+01 -.539E+00 -.443E+01   -.222E-12 0.181E-12 0.561E-11   -.198E+01 0.543E+00 0.453E+01   0.307E-02 -.355E-02 -.100E+00

 POSITION                                       TOTAL-FORCE (eV/Angst)
      6.97443      2.36172     19.17831        -0.002583     -0.010236      0.007416
      4.27735      4.15819      9.98715         0.026975      0.005430     -0.038710
      5.67840      1.61583      9.95609         0.010828      0.002741     -0.038673
      5.61601      0.01079     19.11996        -0.008173      0.002654      0.018576
      8.36408      4.78184     12.23439        -0.012121      0.003092     -0.005323
      2.82864     -0.00901     19.11856         0.013277      0.001253      0.021241
      4.21875      4.07339     16.94555        -0.005359      0.008560      0.001397
      9.87294      4.07651     17.06283         0.011542      0.000333     -0.001454
      4.25996      2.41366     19.12426         0.004804     -0.003860      0.017123
     11.25133      6.43072     16.98611         0.003028     -0.005873      0.003098
      4.24762      5.68325     14.64066        -0.017574      0.009797      0.009425
     -0.05851     -0.00601     19.30085         0.002757     -0.002840     -0.005995
      6.95600      4.07666      9.92499        -0.000954      0.000052     -0.032420
      1.40144      0.81881     14.60743        -0.019434     -0.000825      0.006291
      8.47376      4.91120     19.28447         0.020608     -0.015221     -0.002902
      5.64160      4.85069     12.28904         0.003464     -0.013815      0.019545
      7.03391      2.44227     12.17433        -0.017642      0.005362     -0.011230
      5.60744      1.64446     16.98830         0.008629      0.006170      0.013436
     11.21149      4.87115     12.24040        -0.010517      0.007790      0.026971
      1.41837      2.38392     19.53176         0.017793      0.004508     -0.016150
      8.40566      1.62827      9.71736         0.012936      0.003277      0.004264
      5.64982      4.83539     19.46751         0.001786      0.003978      0.001968
      9.83002      5.68025     14.64250         0.005854     -0.023036      0.019888
      9.87062      4.08393      9.78134         0.005464      0.003973     -0.018014
      2.80735      3.27107     14.67706        -0.004966      0.021960      0.025571
      5.60264     -0.03694     12.18394         0.009187     -0.014392     -0.016365
      2.87976      1.64608      9.73927        -0.005467      0.002234     -0.005712
      0.00636      0.01879     12.20301        -0.019087     -0.015711     -0.007012
     11.28923      6.50362      9.87981         0.016256      0.004933     -0.030664
      7.00437      5.68789     14.63909        -0.003254     -0.018449     -0.000356
      9.79461      2.44740     12.19155        -0.007852     -0.005088     -0.003522
      5.58467      6.44898      9.92816        -0.004648      0.009869     -0.021726
      5.62985      6.50453     16.99166        -0.023082     -0.020137     -0.002983
      8.43341      6.51292     17.00622         0.017063     -0.005009      0.017069
      2.82550      1.70036     17.06060         0.013073      0.013704      0.026947
      5.62322      3.28449     14.61280         0.001514     -0.001014     -0.002084
      8.46151      6.49385      9.71832        -0.002922      0.011783     -0.007714
      7.01452      4.07340     17.02816        -0.001014      0.004920     -0.010259
      8.48525      1.64980     17.03017        -0.033553      0.005848     -0.002718
      2.81040     -0.06017     12.23944        -0.020244     -0.001872     -0.013725
      4.22363      2.46494     12.15590         0.004909      0.003865     -0.011452
      8.44394      3.27492     14.56698        -0.016550      0.027751     -0.000814
      7.04481      0.80524     14.58195         0.008518      0.001380      0.022488
      2.83440      4.81669     19.33416         0.024096     -0.013138      0.008506
      4.20503      0.83528     14.63055        -0.007366     -0.006701      0.036755
    total drift:                               -0.001326      0.000197      0.000014

  FREE ENERGIE OF THE ION-ELECTRON SYSTEM (eV)
  free  energy   TOTEN  =      -158.51104512 eV

  energy  without entropy=     -158.50931010  energy(sigma->0) =     -158.51046678

 d Force = 0.7372656E-02[ 0.308E-02, 0.117E-01]  d Energy = 0.7142029E-02 0.231E-03
 d Force = 0.5761539E+03[ 0.576E+03, 0.577E+03]  d Ewald  = 0.5761540E+03-0.736E-04

 stress matrix after NEB project (eV)
     -5.61185     -0.31756      0.21874
     -0.31756     -6.15615     -0.26618
      0.21874     -0.26618      0.96154
  FORCES: max atom, RMS     0.047493    0.024273
  FORCE total and by dimension    0.162826    0.038710
  Stress total and by dimension    8.411584    6.156152
 Conjugate gradient step on ions:
 trial-energy change:   -0.007142  1 .order   -0.007373   -0.011664   -0.003081
  (g-gl).g = 0.504E-02      g.g   = 0.504E-02  gl.gl    = 0.132E-01
 g(Force)  = 0.504E-02   g(Stress)= 0.000E+00 ortho     = 0.102E-03
 gamma     =   0.38284
 trial     =   2.29455
 opt step  =   3.37429  (harmonic =   3.11830) maximal distance =0.01476672
 next E    =  -158.511746   (d E  =  -0.00784)

 reached required accuracy - stopping structural energy minimisation